certificates/rado_a15_c137_N31.cnf
c Rad2 upper bound instance: x1 + 15*x2 - x3 = 137, interval [1,31]
p cnf 31 128
1 10 14 0
-1 -10 -14 0
1 11 29 0
-1 -11 -29 0
2 10 15 0
-2 -10 -15 0
2 11 30 0
-2 -11 -30 0
1 3 9 0
-1 -3 -9 0
3 10 16 0
-3 -10 -16 0
3 11 31 0
-3 -11 -31 0
2 4 9 0
-2 -4 -9 0
4 10 17 0
-4 -10 -17 0
3 5 9 0
-3 -5 -9 0
5 10 18 0
-5 -10 -18 0
4 6 9 0
-4 -6 -9 0
6 10 19 0
-6 -10 -19 0
5 7 9 0
-5 -7 -9 0
7 10 20 0
-7 -10 -20 0
6 8 9 0
-6 -8 -9 0
8 10 21 0
-8 -10 -21 0
7 9 0
-7 -9 0
9 10 22 0
-9 -10 -22 0
8 9 10 0
-8 -9 -10 0
10 23 0
-10 -23 0
9 11 0
-9 -11 0
10 11 24 0
-10 -11 -24 0
9 10 12 0
-9 -10 -12 0
10 12 25 0
-10 -12 -25 0
9 11 13 0
-9 -11 -13 0
10 13 26 0
-10 -13 -26 0
9 12 14 0
-9 -12 -14 0
10 14 27 0
-10 -14 -27 0
9 13 15 0
-9 -13 -15 0
10 15 28 0
-10 -15 -28 0
9 14 16 0
-9 -14 -16 0
10 16 29 0
-10 -16 -29 0
9 15 17 0
-9 -15 -17 0
10 17 30 0
-10 -17 -30 0
1 8 18 0
-1 -8 -18 0
9 16 18 0
-9 -16 -18 0
10 18 31 0
-10 -18 -31 0
2 8 19 0
-2 -8 -19 0
9 17 19 0
-9 -17 -19 0
3 8 20 0
-3 -8 -20 0
9 18 20 0
-9 -18 -20 0
4 8 21 0
-4 -8 -21 0
9 19 21 0
-9 -19 -21 0
5 8 22 0
-5 -8 -22 0
9 20 22 0
-9 -20 -22 0
6 8 23 0
-6 -8 -23 0
9 21 23 0
-9 -21 -23 0
7 8 24 0
-7 -8 -24 0
9 22 24 0
-9 -22 -24 0
8 25 0
-8 -25 0
9 23 25 0
-9 -23 -25 0
8 9 26 0
-8 -9 -26 0
9 24 26 0
-9 -24 -26 0
8 10 27 0
-8 -10 -27 0
9 25 27 0
-9 -25 -27 0
8 11 28 0
-8 -11 -28 0
9 26 28 0
-9 -26 -28 0
8 12 29 0
-8 -12 -29 0
9 27 29 0
-9 -27 -29 0
8 13 30 0
-8 -13 -30 0
9 28 30 0
-9 -28 -30 0
8 14 31 0
-8 -14 -31 0
9 29 31 0
-9 -29 -31 0
