certificates/rado_a15_c137_N31.drat
-29 -31 0
d -29 -9 -31 0
8 9 2 0
-11 -30 -31 0
-30 -31 0
d -11 -30 -31 0
-8 -9 -2 0
11 -31 0
-31 0
30 -11 0
-11 0
3 0
9 0
-1 0
-5 0
-7 0
29 0
-27 0
-8 0
18 0
24 0
25 0
28 0
14 0
22 0
10 0
-20 0
-16 0
-26 0
0
